MST04
Position Depot: Random
Horizon for Depot: Small
Position of customers: Mixt
Distribution of the demand: Small
Width of time windows: Tight
Distribution of the service: Large

VEHICLE 
NUMBER 	 CAPACITY 
 6 	 	 60 
 
CUSTOMER
CUST NO. 	 XCOORD.  	 YCOORD. 	 DEMAND 	 READY TIME 	 DUE DATE 	 SERVICE TIME 
 0 	 	 441 	 	 743 	 	 0 	 	 0 	 	 1850 	 	 0 
  1 	 	 695 	 	 741 	 	 9 	 	 1349 	 	 1426 	 	 181 
  2 	 	 435 	 	 244 	 	 8 	 	 1005 	 	 1121 	 	 164 
  3 	 	 460 	 	 700 	 	 9 	 	 -25 	 	 54 	 	 156 
  4 	 	 190 	 	 321 	 	 6 	 	 1616 	 	 1748 	 	 140 
  5 	 	 778 	 	 578 	 	 7 	 	 930 	 	 986 	 	 156 
  6 	 	 465 	 	 235 	 	 7 	 	 1472 	 	 1590 	 	 191 
  7 	 	 229 	 	 415 	 	 7 	 	 812 	 	 928 	 	 117 
  8 	 	 547 	 	 258 	 	 10 	 	 727 	 	 922 	 	 114 
  9 	 	 559 	 	 813 	 	 5 	 	 1479 	 	 1644 	 	 181 
  10 	 	 128 	 	 401 	 	 9 	 	 474 	 	 635 	 	 153 
  11 	 	 140 	 	 337 	 	 9 	 	 789 	 	 903 	 	 191 
  12 	 	 454 	 	 655 	 	 5 	 	 743 	 	 823 	 	 170 
  13 	 	 898 	 	 665 	 	 6 	 	 428 	 	 578 	 	 149 
  14 	 	 821 	 	 570 	 	 6 	 	 340 	 	 459 	 	 168 
  15 	 	 646 	 	 741 	 	 5 	 	 916 	 	 994 	 	 179 
  16 	 	 476 	 	 367 	 	 5 	 	 378 	 	 536 	 	 119 
  17 	 	 700 	 	 734 	 	 7 	 	 1795 	 	 1850 	 	 108 
  18 	 	 843 	 	 656 	 	 8 	 	 451 	 	 546 	 	 185 
  19 	 	 223 	 	 346 	 	 8 	 	 1342 	 	 1485 	 	 142 
  20 	 	 588 	 	 652 	 	 8 	 	 463 	 	 577 	 	 103 
  21 	 	 707 	 	 776 	 	 9 	 	 1754 	 	 1822 	 	 192 
  22 	 	 562 	 	 801 	 	 5 	 	 365 	 	 493 	 	 125 
  23 	 	 326 	 	 300 	 	 7 	 	 1441 	 	 1601 	 	 193 
  24 	 	 532 	 	 796 	 	 6 	 	 1586 	 	 1662 	 	 127 
  25 	 	 142 	 	 272 	 	 9 	 	 485 	 	 613 	 	 153 
  26 	 	 442 	 	 146 	 	 6 	 	 1419 	 	 1592 	 	 193 
  27 	 	 737 	 	 835 	 	 9 	 	 800 	 	 874 	 	 183 
  28 	 	 510 	 	 649 	 	 10 	 	 757 	 	 868 	 	 198 
  29 	 	 909 	 	 404 	 	 5 	 	 564 	 	 715 	 	 148 
  30 	 	 403 	 	 296 	 	 5 	 	 430 	 	 493 	 	 188 
  31 	 	 760 	 	 737 	 	 9 	 	 1205 	 	 1360 	 	 132 
  32 	 	 980 	 	 542 	 	 9 	 	 447 	 	 632 	 	 111 
  33 	 	 539 	 	 10 	 	 7 	 	 994 	 	 1069 	 	 199 
  34 	 	 440 	 	 974 	 	 8 	 	 1235 	 	 1314 	 	 186 
  35 	 	 794 	 	 920 	 	 8 	 	 964 	 	 1110 	 	 103 
  36 	 	 155 	 	 143 	 	 9 	 	 1133 	 	 1219 	 	 188 
  37 	 	 460 	 	 846 	 	 10 	 	 248 	 	 433 	 	 191 
  38 	 	 195 	 	 260 	 	 9 	 	 1231 	 	 1287 	 	 193 
  39 	 	 543 	 	 967 	 	 10 	 	 138 	 	 270 	 	 182 
  40 	 	 816 	 	 582 	 	 6 	 	 622 	 	 820 	 	 141 
  41 	 	 165 	 	 172 	 	 9 	 	 641 	 	 697 	 	 109 
  42 	 	 324 	 	 738 	 	 5 	 	 561 	 	 651 	 	 194 
  43 	 	 456 	 	 249 	 	 6 	 	 1195 	 	 1313 	 	 129 
  44 	 	 54 	 	 52 	 	 8 	 	 1473 	 	 1568 	 	 173 
  45 	 	 839 	 	 157 	 	 9 	 	 716 	 	 779 	 	 192 
  46 	 	 634 	 	 269 	 	 7 	 	 754 	 	 838 	 	 127 
  47 	 	 989 	 	 529 	 	 6 	 	 694 	 	 834 	 	 168 
  48 	 	 629 	 	 618 	 	 9 	 	 741 	 	 871 	 	 186 
  49 	 	 89 	 	 557 	 	 7 	 	 663 	 	 713 	 	 125 
  50 	 	 772 	 	 684 	 	 9 	 	 560 	 	 628 	 	 197 
 